NAME           C:\Bruker\Hvattum\knapsack\Problems\class1\100-5-12.mps
ROWS
 N  OBJ
 L  CONSTR1
 L  CONSTR2
 L  CONSTR3
 L  CONSTR4
 L  CONSTR5
COLUMNS
    INT0001   'MARKER'  'INTORG'
    X1        OBJ       630
    X1        CONSTR1   884
    X1        CONSTR2   203
    X1        CONSTR3   330
    X1        CONSTR4   536
    X1        CONSTR5   959
    X2        OBJ       729
    X2        CONSTR1   667
    X2        CONSTR2   685
    X2        CONSTR3   574
    X2        CONSTR4   826
    X2        CONSTR5   48
    X3        OBJ       468
    X3        CONSTR1   13
    X3        CONSTR2   977
    X3        CONSTR3   440
    X3        CONSTR4   575
    X3        CONSTR5   262
    X4        OBJ       307
    X4        CONSTR1   143
    X4        CONSTR2   28
    X4        CONSTR3   922
    X4        CONSTR4   44
    X4        CONSTR5   398
    X5        OBJ       761
    X5        CONSTR1   333
    X5        CONSTR2   292
    X5        CONSTR3   341
    X5        CONSTR4   727
    X5        CONSTR5   847
    X6        OBJ       579
    X6        CONSTR1   464
    X6        CONSTR2   95
    X6        CONSTR3   701
    X6        CONSTR4   349
    X6        CONSTR5   828
    X7        OBJ       1045
    X7        CONSTR1   938
    X7        CONSTR2   558
    X7        CONSTR3   979
    X7        CONSTR4   455
    X7        CONSTR5   624
    X8        OBJ       813
    X8        CONSTR1   225
    X8        CONSTR2   427
    X8        CONSTR3   974
    X8        CONSTR4   181
    X8        CONSTR5   807
    X9        OBJ       582
    X9        CONSTR1   37
    X9        CONSTR2   542
    X9        CONSTR3   747
    X9        CONSTR4   668
    X9        CONSTR5   239
    X10       OBJ       496
    X10       CONSTR1   193
    X10       CONSTR2   770
    X10       CONSTR3   47
    X10       CONSTR4   274
    X10       CONSTR5   504
    X11       OBJ       569
    X11       CONSTR1   531
    X11       CONSTR2   669
    X11       CONSTR3   69
    X11       CONSTR4   999
    X11       CONSTR5   52
    X12       OBJ       564
    X12       CONSTR1   750
    X12       CONSTR2   14
    X12       CONSTR3   117
    X12       CONSTR4   225
    X12       CONSTR5   678
    X13       OBJ       869
    X13       CONSTR1   933
    X13       CONSTR2   59
    X13       CONSTR3   523
    X13       CONSTR4   27
    X13       CONSTR5   770
    X14       OBJ       789
    X14       CONSTR1   385
    X14       CONSTR2   63
    X14       CONSTR3   913
    X14       CONSTR4   514
    X14       CONSTR5   443
    X15       OBJ       582
    X15       CONSTR1   877
    X15       CONSTR2   520
    X15       CONSTR3   83
    X15       CONSTR4   740
    X15       CONSTR5   647
    X16       OBJ       624
    X16       CONSTR1   179
    X16       CONSTR2   206
    X16       CONSTR3   967
    X16       CONSTR4   585
    X16       CONSTR5   549
    X17       OBJ       520
    X17       CONSTR1   639
    X17       CONSTR2   14
    X17       CONSTR3   65
    X17       CONSTR4   804
    X17       CONSTR5   844
    X18       OBJ       666
    X18       CONSTR1   427
    X18       CONSTR2   447
    X18       CONSTR3   647
    X18       CONSTR4   994
    X18       CONSTR5   811
    X19       OBJ       696
    X19       CONSTR1   665
    X19       CONSTR2   372
    X19       CONSTR3   983
    X19       CONSTR4   607
    X19       CONSTR5   306
    X20       OBJ       651
    X20       CONSTR1   599
    X20       CONSTR2   816
    X20       CONSTR3   762
    X20       CONSTR4   477
    X20       CONSTR5   5
    X21       OBJ       704
    X21       CONSTR1   755
    X21       CONSTR2   504
    X21       CONSTR3   384
    X21       CONSTR4   349
    X21       CONSTR5   504
    X22       OBJ       343
    X22       CONSTR1   774
    X22       CONSTR2   271
    X22       CONSTR3   47
    X22       CONSTR4   357
    X22       CONSTR5   120
    X23       OBJ       770
    X23       CONSTR1   25
    X23       CONSTR2   342
    X23       CONSTR3   89
    X23       CONSTR4   406
    X23       CONSTR5   491
    X24       OBJ       844
    X24       CONSTR1   165
    X24       CONSTR2   650
    X24       CONSTR3   885
    X24       CONSTR4   275
    X24       CONSTR5   324
    X25       OBJ       771
    X25       CONSTR1   129
    X25       CONSTR2   669
    X25       CONSTR3   21
    X25       CONSTR4   522
    X25       CONSTR5   851
    X26       OBJ       937
    X26       CONSTR1   403
    X26       CONSTR2   658
    X26       CONSTR3   745
    X26       CONSTR4   548
    X26       CONSTR5   850
    X27       OBJ       333
    X27       CONSTR1   49
    X27       CONSTR2   326
    X27       CONSTR3   349
    X27       CONSTR4   337
    X27       CONSTR5   64
    X28       OBJ       1012
    X28       CONSTR1   681
    X28       CONSTR2   976
    X28       CONSTR3   741
    X28       CONSTR4   656
    X28       CONSTR5   418
    X29       OBJ       763
    X29       CONSTR1   443
    X29       CONSTR2   398
    X29       CONSTR3   188
    X29       CONSTR4   10
    X29       CONSTR5   533
    X30       OBJ       403
    X30       CONSTR1   148
    X30       CONSTR2   902
    X30       CONSTR3   3
    X30       CONSTR4   136
    X30       CONSTR5   450
    X31       OBJ       998
    X31       CONSTR1   141
    X31       CONSTR2   645
    X31       CONSTR3   526
    X31       CONSTR4   831
    X31       CONSTR5   443
    X32       OBJ       765
    X32       CONSTR1   484
    X32       CONSTR2   932
    X32       CONSTR3   236
    X32       CONSTR4   666
    X32       CONSTR5   561
    X33       OBJ       1103
    X33       CONSTR1   414
    X33       CONSTR2   868
    X33       CONSTR3   974
    X33       CONSTR4   881
    X33       CONSTR5   693
    X34       OBJ       574
    X34       CONSTR1   868
    X34       CONSTR2   6
    X34       CONSTR3   270
    X34       CONSTR4   373
    X34       CONSTR5   112
    X35       OBJ       689
    X35       CONSTR1   86
    X35       CONSTR2   533
    X35       CONSTR3   366
    X35       CONSTR4   172
    X35       CONSTR5   788
    X36       OBJ       741
    X36       CONSTR1   295
    X36       CONSTR2   719
    X36       CONSTR3   292
    X36       CONSTR4   185
    X36       CONSTR5   647
    X37       OBJ       566
    X37       CONSTR1   484
    X37       CONSTR2   241
    X37       CONSTR3   441
    X37       CONSTR4   876
    X37       CONSTR5   281
    X38       OBJ       977
    X38       CONSTR1   38
    X38       CONSTR2   778
    X38       CONSTR3   594
    X38       CONSTR4   494
    X38       CONSTR5   754
    X39       OBJ       491
    X39       CONSTR1   419
    X39       CONSTR2   244
    X39       CONSTR3   490
    X39       CONSTR4   211
    X39       CONSTR5   385
    X40       OBJ       1025
    X40       CONSTR1   833
    X40       CONSTR2   185
    X40       CONSTR3   807
    X40       CONSTR4   697
    X40       CONSTR5   221
    X41       OBJ       898
    X41       CONSTR1   706
    X41       CONSTR2   63
    X41       CONSTR3   326
    X41       CONSTR4   648
    X41       CONSTR5   576
    X42       OBJ       427
    X42       CONSTR1   70
    X42       CONSTR2   369
    X42       CONSTR3   546
    X42       CONSTR4   224
    X42       CONSTR5   368
    X43       OBJ       922
    X43       CONSTR1   481
    X43       CONSTR2   152
    X43       CONSTR3   687
    X43       CONSTR4   826
    X43       CONSTR5   462
    X44       OBJ       993
    X44       CONSTR1   689
    X44       CONSTR2   114
    X44       CONSTR3   707
    X44       CONSTR4   585
    X44       CONSTR5   869
    X45       OBJ       780
    X45       CONSTR1   914
    X45       CONSTR2   541
    X45       CONSTR3   593
    X45       CONSTR4   233
    X45       CONSTR5   785
    X46       OBJ       458
    X46       CONSTR1   218
    X46       CONSTR2   202
    X46       CONSTR3   230
    X46       CONSTR4   49
    X46       CONSTR5   664
    X47       OBJ       1106
    X47       CONSTR1   803
    X47       CONSTR2   129
    X47       CONSTR3   712
    X47       CONSTR4   819
    X47       CONSTR5   701
    X48       OBJ       832
    X48       CONSTR1   867
    X48       CONSTR2   735
    X48       CONSTR3   360
    X48       CONSTR4   200
    X48       CONSTR5   542
    X49       OBJ       827
    X49       CONSTR1   416
    X49       CONSTR2   485
    X49       CONSTR3   475
    X49       CONSTR4   659
    X49       CONSTR5   176
    X50       OBJ       726
    X50       CONSTR1   47
    X50       CONSTR2   109
    X50       CONSTR3   261
    X50       CONSTR4   61
    X50       CONSTR5   988
    X51       OBJ       953
    X51       CONSTR1   120
    X51       CONSTR2   954
    X51       CONSTR3   522
    X51       CONSTR4   644
    X51       CONSTR5   516
    X52       OBJ       740
    X52       CONSTR1   290
    X52       CONSTR2   307
    X52       CONSTR3   314
    X52       CONSTR4   677
    X52       CONSTR5   903
    X53       OBJ       528
    X53       CONSTR1   781
    X53       CONSTR2   375
    X53       CONSTR3   543
    X53       CONSTR4   723
    X53       CONSTR5   35
    X54       OBJ       616
    X54       CONSTR1   459
    X54       CONSTR2   460
    X54       CONSTR3   31
    X54       CONSTR4   955
    X54       CONSTR5   445
    X55       OBJ       897
    X55       CONSTR1   520
    X55       CONSTR2   397
    X55       CONSTR3   445
    X55       CONSTR4   163
    X55       CONSTR5   833
    X56       OBJ       1109
    X56       CONSTR1   25
    X56       CONSTR2   779
    X56       CONSTR3   909
    X56       CONSTR4   643
    X56       CONSTR5   997
    X57       OBJ       359
    X57       CONSTR1   173
    X57       CONSTR2   203
    X57       CONSTR3   670
    X57       CONSTR4   171
    X57       CONSTR5   392
    X58       OBJ       813
    X58       CONSTR1   911
    X58       CONSTR2   265
    X58       CONSTR3   188
    X58       CONSTR4   132
    X58       CONSTR5   509
    X59       OBJ       690
    X59       CONSTR1   244
    X59       CONSTR2   217
    X59       CONSTR3   483
    X59       CONSTR4   859
    X59       CONSTR5   38
    X60       OBJ       678
    X60       CONSTR1   618
    X60       CONSTR2   415
    X60       CONSTR3   676
    X60       CONSTR4   390
    X60       CONSTR5   772
    X61       OBJ       668
    X61       CONSTR1   193
    X61       CONSTR2   705
    X61       CONSTR3   218
    X61       CONSTR4   936
    X61       CONSTR5   764
    X62       OBJ       1110
    X62       CONSTR1   248
    X62       CONSTR2   630
    X62       CONSTR3   919
    X62       CONSTR4   767
    X62       CONSTR5   616
    X63       OBJ       719
    X63       CONSTR1   664
    X63       CONSTR2   485
    X63       CONSTR3   742
    X63       CONSTR4   501
    X63       CONSTR5   764
    X64       OBJ       800
    X64       CONSTR1   674
    X64       CONSTR2   889
    X64       CONSTR3   751
    X64       CONSTR4   680
    X64       CONSTR5   151
    X65       OBJ       989
    X65       CONSTR1   452
    X65       CONSTR2   849
    X65       CONSTR3   685
    X65       CONSTR4   403
    X65       CONSTR5   931
    X66       OBJ       977
    X66       CONSTR1   641
    X66       CONSTR2   958
    X66       CONSTR3   583
    X66       CONSTR4   836
    X66       CONSTR5   609
    X67       OBJ       550
    X67       CONSTR1   457
    X67       CONSTR2   66
    X67       CONSTR3   876
    X67       CONSTR4   447
    X67       CONSTR5   736
    X68       OBJ       460
    X68       CONSTR1   323
    X68       CONSTR2   175
    X68       CONSTR3   687
    X68       CONSTR4   466
    X68       CONSTR5   248
    X69       OBJ       768
    X69       CONSTR1   286
    X69       CONSTR2   57
    X69       CONSTR3   592
    X69       CONSTR4   617
    X69       CONSTR5   828
    X70       OBJ       760
    X70       CONSTR1   434
    X70       CONSTR2   39
    X70       CONSTR3   3
    X70       CONSTR4   879
    X70       CONSTR5   923
    X71       OBJ       802
    X71       CONSTR1   541
    X71       CONSTR2   234
    X71       CONSTR3   681
    X71       CONSTR4   501
    X71       CONSTR5   776
    X72       OBJ       743
    X72       CONSTR1   904
    X72       CONSTR2   809
    X72       CONSTR3   643
    X72       CONSTR4   244
    X72       CONSTR5   198
    X73       OBJ       638
    X73       CONSTR1   866
    X73       CONSTR2   17
    X73       CONSTR3   946
    X73       CONSTR4   468
    X73       CONSTR5   800
    X74       OBJ       834
    X74       CONSTR1   326
    X74       CONSTR2   4
    X74       CONSTR3   627
    X74       CONSTR4   921
    X74       CONSTR5   238
    X75       OBJ       600
    X75       CONSTR1   624
    X75       CONSTR2   402
    X75       CONSTR3   352
    X75       CONSTR4   282
    X75       CONSTR5   893
    X76       OBJ       788
    X76       CONSTR1   445
    X76       CONSTR2   882
    X76       CONSTR3   585
    X76       CONSTR4   147
    X76       CONSTR5   753
    X77       OBJ       687
    X77       CONSTR1   615
    X77       CONSTR2   336
    X77       CONSTR3   135
    X77       CONSTR4   229
    X77       CONSTR5   102
    X78       OBJ       548
    X78       CONSTR1   296
    X78       CONSTR2   109
    X78       CONSTR3   255
    X78       CONSTR4   893
    X78       CONSTR5   461
    X79       OBJ       1066
    X79       CONSTR1   600
    X79       CONSTR2   696
    X79       CONSTR3   985
    X79       CONSTR4   261
    X79       CONSTR5   654
    X80       OBJ       510
    X80       CONSTR1   614
    X80       CONSTR2   222
    X80       CONSTR3   323
    X80       CONSTR4   61
    X80       CONSTR5   623
    X81       OBJ       584
    X81       CONSTR1   673
    X81       CONSTR2   805
    X81       CONSTR3   404
    X81       CONSTR4   344
    X81       CONSTR5   383
    X82       OBJ       1039
    X82       CONSTR1   923
    X82       CONSTR2   893
    X82       CONSTR3   328
    X82       CONSTR4   680
    X82       CONSTR5   569
    X83       OBJ       429
    X83       CONSTR1   149
    X83       CONSTR2   212
    X83       CONSTR3   473
    X83       CONSTR4   100
    X83       CONSTR5   736
    X84       OBJ       887
    X84       CONSTR1   493
    X84       CONSTR2   768
    X84       CONSTR3   79
    X84       CONSTR4   685
    X84       CONSTR5   412
    X85       OBJ       906
    X85       CONSTR1   773
    X85       CONSTR2   389
    X85       CONSTR3   803
    X85       CONSTR4   805
    X85       CONSTR5   602
    X86       OBJ       949
    X86       CONSTR1   604
    X86       CONSTR2   15
    X86       CONSTR3   928
    X86       CONSTR4   869
    X86       CONSTR5   224
    X87       OBJ       919
    X87       CONSTR1   811
    X87       CONSTR2   848
    X87       CONSTR3   525
    X87       CONSTR4   385
    X87       CONSTR5   175
    X88       OBJ       957
    X88       CONSTR1   520
    X88       CONSTR2   968
    X88       CONSTR3   957
    X88       CONSTR4   159
    X88       CONSTR5   315
    X89       OBJ       407
    X89       CONSTR1   343
    X89       CONSTR2   551
    X89       CONSTR3   147
    X89       CONSTR4   296
    X89       CONSTR5   432
    X90       OBJ       766
    X90       CONSTR1   304
    X90       CONSTR2   367
    X90       CONSTR3   163
    X90       CONSTR4   355
    X90       CONSTR5   315
    X91       OBJ       912
    X91       CONSTR1   147
    X91       CONSTR2   456
    X91       CONSTR3   940
    X91       CONSTR4   535
    X91       CONSTR5   971
    X92       OBJ       621
    X92       CONSTR1   576
    X92       CONSTR2   590
    X92       CONSTR3   710
    X92       CONSTR4   610
    X92       CONSTR5   224
    X93       OBJ       561
    X93       CONSTR1   444
    X93       CONSTR2   553
    X93       CONSTR3   373
    X93       CONSTR4   856
    X93       CONSTR5   492
    X94       OBJ       589
    X94       CONSTR1   349
    X94       CONSTR2   946
    X94       CONSTR3   346
    X94       CONSTR4   103
    X94       CONSTR5   34
    X95       OBJ       490
    X95       CONSTR1   941
    X95       CONSTR2   672
    X95       CONSTR3   279
    X95       CONSTR4   203
    X95       CONSTR5   355
    X96       OBJ       401
    X96       CONSTR1   809
    X96       CONSTR2   241
    X96       CONSTR3   320
    X96       CONSTR4   120
    X96       CONSTR5   433
    X97       OBJ       796
    X97       CONSTR1   639
    X97       CONSTR2   576
    X97       CONSTR3   942
    X97       CONSTR4   584
    X97       CONSTR5   34
    X98       OBJ       790
    X98       CONSTR1   361
    X98       CONSTR2   517
    X98       CONSTR3   235
    X98       CONSTR4   289
    X98       CONSTR5   408
    X99       OBJ       778
    X99       CONSTR1   366
    X99       CONSTR2   640
    X99       CONSTR3   426
    X99       CONSTR4   50
    X99       CONSTR5   586
    X100      OBJ       922
    X100      CONSTR1   690
    X100      CONSTR2   822
    X100      CONSTR3   252
    X100      CONSTR4   744
    X100      CONSTR5   295
    INT0001   'MARKER'  'INTEND'
RHS
    RHS10001  CONSTR1   23993
    RHS10001  CONSTR2   23134
    RHS10001  CONSTR3   25264
    RHS10001  CONSTR4   24281
    RHS10001  CONSTR5   25873
BOUNDS
 BV BND       X1        .00
 BV BND       X2        .00
 BV BND       X3        .00
 BV BND       X4        .00
 BV BND       X5        .00
 BV BND       X6        .00
 BV BND       X7        .00
 BV BND       X8        .00
 BV BND       X9        .00
 BV BND       X10       .00
 BV BND       X11       .00
 BV BND       X12       .00
 BV BND       X13       .00
 BV BND       X14       .00
 BV BND       X15       .00
 BV BND       X16       .00
 BV BND       X17       .00
 BV BND       X18       .00
 BV BND       X19       .00
 BV BND       X20       .00
 BV BND       X21       .00
 BV BND       X22       .00
 BV BND       X23       .00
 BV BND       X24       .00
 BV BND       X25       .00
 BV BND       X26       .00
 BV BND       X27       .00
 BV BND       X28       .00
 BV BND       X29       .00
 BV BND       X30       .00
 BV BND       X31       .00
 BV BND       X32       .00
 BV BND       X33       .00
 BV BND       X34       .00
 BV BND       X35       .00
 BV BND       X36       .00
 BV BND       X37       .00
 BV BND       X38       .00
 BV BND       X39       .00
 BV BND       X40       .00
 BV BND       X41       .00
 BV BND       X42       .00
 BV BND       X43       .00
 BV BND       X44       .00
 BV BND       X45       .00
 BV BND       X46       .00
 BV BND       X47       .00
 BV BND       X48       .00
 BV BND       X49       .00
 BV BND       X50       .00
 BV BND       X51       .00
 BV BND       X52       .00
 BV BND       X53       .00
 BV BND       X54       .00
 BV BND       X55       .00
 BV BND       X56       .00
 BV BND       X57       .00
 BV BND       X58       .00
 BV BND       X59       .00
 BV BND       X60       .00
 BV BND       X61       .00
 BV BND       X62       .00
 BV BND       X63       .00
 BV BND       X64       .00
 BV BND       X65       .00
 BV BND       X66       .00
 BV BND       X67       .00
 BV BND       X68       .00
 BV BND       X69       .00
 BV BND       X70       .00
 BV BND       X71       .00
 BV BND       X72       .00
 BV BND       X73       .00
 BV BND       X74       .00
 BV BND       X75       .00
 BV BND       X76       .00
 BV BND       X77       .00
 BV BND       X78       .00
 BV BND       X79       .00
 BV BND       X80       .00
 BV BND       X81       .00
 BV BND       X82       .00
 BV BND       X83       .00
 BV BND       X84       .00
 BV BND       X85       .00
 BV BND       X86       .00
 BV BND       X87       .00
 BV BND       X88       .00
 BV BND       X89       .00
 BV BND       X90       .00
 BV BND       X91       .00
 BV BND       X92       .00
 BV BND       X93       .00
 BV BND       X94       .00
 BV BND       X95       .00
 BV BND       X96       .00
 BV BND       X97       .00
 BV BND       X98       .00
 BV BND       X99       .00
 BV BND       X100      .00
ENDATA
